Grasp exp. instance_n_15_m_5_id_5.lp tipoLifted 0 szPool 1 nIteration 100 alpha 1 
Academic license - for non-commercial use only
Read LP format model from file ../input/instancesGenerated/instance_n_15_m_5_id_5.lp
Reading time = 0.00 seconds
: 5 rows, 15 columns, 75 nonzeros
Optimize a model with 5 rows, 15 columns and 75 nonzeros
Variable types: 0 continuous, 15 integer (15 binary)
Coefficient statistics:
  Matrix range     [1e+00, 1e+01]
  Objective range  [1e+00, 9e+00]
  Bounds range     [1e+00, 1e+00]
  RHS range        [4e+01, 5e+01]
Found heuristic solution: objective 34.0000000

Explored 0 nodes (0 simplex iterations) in 0.00 seconds
Thread count was 1 (of 8 available processors)

Solution count 1: 34 
No other solutions better than 0

Solution limit reached
Best objective 3.400000000000e+01, best bound -, gap -
C_1:	 1.00 x_1  = 0.622685 + 6.00 x_2  = 0.000000 + 9.00 x_3  = 0.060185 + 2.00 x_4  = 1.000000 + 8.00 x_5  = 1.000000 + 8.00 x_6  = 0.770833 + 9.00 x_7  = 0.000000 + 8.00 x_8  = 0.000000 + 8.00 x_9  = 0.270833 + 4.00 x_10  = 1.000000 + 7.00 x_11  = 0.000000 + 10.00 x_12  = 1.000000 + 5.00 x_13  = 0.900463 + 1.00 x_14  = 0.000000 + 10.00 x_15  = 1.000000 <= 48.00
C_2:	 9.00 x_1  = 0.622685 + 6.00 x_2  = 0.000000 + 2.00 x_3  = 0.060185 + 5.00 x_4  = 1.000000 + 4.00 x_5  = 1.000000 + 9.00 x_6  = 0.770833 + 4.00 x_7  = 0.000000 + 8.00 x_8  = 0.000000 + 9.00 x_9  = 0.270833 + 10.00 x_10  = 1.000000 + 8.00 x_11  = 0.000000 + 2.00 x_12  = 1.000000 + 1.00 x_13  = 0.900463 + 3.00 x_14  = 0.000000 + 5.00 x_15  = 1.000000 <= 42.00
C_3:	 9.00 x_1  = 0.622685 + 5.00 x_2  = 0.000000 + 10.00 x_3  = 0.060185 + 9.00 x_4  = 1.000000 + 6.00 x_5  = 1.000000 + 7.00 x_6  = 0.770833 + 8.00 x_7  = 0.000000 + 5.00 x_8  = 0.000000 + 7.00 x_9  = 0.270833 + 6.00 x_10  = 1.000000 + 8.00 x_11  = 0.000000 + 5.00 x_12  = 1.000000 + 5.00 x_13  = 0.900463 + 4.00 x_14  = 0.000000 + 5.00 x_15  = 1.000000 <= 49.00
C_4:	 6.00 x_1  = 0.622685 + 4.00 x_2  = 0.000000 + 3.00 x_3  = 0.060185 + 7.00 x_4  = 1.000000 + 1.00 x_5  = 1.000000 + 6.00 x_6  = 0.770833 + 6.00 x_7  = 0.000000 + 6.00 x_8  = 0.000000 + 5.00 x_9  = 0.270833 + 6.00 x_10  = 1.000000 + 8.00 x_11  = 0.000000 + 4.00 x_12  = 1.000000 + 9.00 x_13  = 0.900463 + 8.00 x_14  = 0.000000 + 6.00 x_15  = 1.000000 <= 42.00
C_5:	 3.00 x_1  = 0.622685 + 8.00 x_2  = 0.000000 + 3.00 x_3  = 0.060185 + 3.00 x_4  = 1.000000 + 6.00 x_5  = 1.000000 + 8.00 x_6  = 0.770833 + 1.00 x_7  = 0.000000 + 4.00 x_8  = 0.000000 + 4.00 x_9  = 0.270833 + 7.00 x_10  = 1.000000 + 9.00 x_11  = 0.000000 + 1.00 x_12  = 1.000000 + 3.00 x_13  = 0.900463 + 5.00 x_14  = 0.000000 + 7.00 x_15  = 1.000000 <= 36.00
Solution initial: 55.701389 
Number Constraints Used in Cover:5
GRASP Method!
Number cuts repeat: 0
value: 55.701389
Number Constraints Used in Cover:8
GRASP Method!
Number cuts repeat: 0
value: 55.701389
Number Constraints Used in Cover:8
GRASP Method!
Number cuts repeat: 0
value: 55.701389
Number Constraints Used in Cover:11
GRASP Method!
Number cuts repeat: 0
value: 55.701389
Number Constraints Used in Cover:14
GRASP Method!
Number cuts repeat: 0
value: 55.701389
Number Constraints Used in Cover:17
GRASP Method!
Number cuts repeat: 0
value: 55.698814
Number Constraints Used in Cover:20
GRASP Method!
Number cuts repeat: 0
value: 55.698814
Number Constraints Used in Cover:23
GRASP Method!
Number cuts repeat: 0
value: 55.698814
Number Constraints Used in Cover:26
GRASP Method!
Number cuts repeat: 0
value: 55.698814
Number Constraints Used in Cover:28
GRASP Method!
Number cuts repeat: 0
value: 55.698814
Number Constraints Used in Cover:30
GRASP Method!
Number cuts repeat: 0
value: 55.698814
Number Constraints Used in Cover:33
GRASP Method!
Number cuts repeat: 0
value: 55.698814
Number Constraints Used in Cover:35
GRASP Method!
Number cuts repeat: 0
value: 55.698814
Number Constraints Used in Cover:36
GRASP Method!
Number cuts repeat: 0
value: 55.698814
Number Constraints Used in Cover:39
GRASP Method!
Number cuts repeat: 0
value: 55.698814
Number Constraints Used in Cover:42
GRASP Method!
Number cuts repeat: 0
value: 55.698814
Number Constraints Used in Cover:45
GRASP Method!
Number cuts repeat: 0
value: 55.698814
Number Constraints Used in Cover:48
GRASP Method!
Number cuts repeat: 0
value: 55.698814
Number Constraints Used in Cover:51
GRASP Method!
Number cuts repeat: 0
value: 55.698814
Number Constraints Used in Cover:54
GRASP Method!
Number cuts repeat: 0
value: 55.698814
Number Constraints Used in Cover:57
GRASP Method!
Number cuts repeat: 0
value: 55.698814
Number Constraints Used in Cover:60
GRASP Method!
Number cuts repeat: 0
value: 55.698814
Number Constraints Used in Cover:63
GRASP Method!
Number cuts repeat: 0
value: 55.698814
Number Constraints Used in Cover:66
GRASP Method!
Number cuts repeat: 0
value: 55.698814
Number Constraints Used in Cover:69
GRASP Method!
Number cuts repeat: 0
value: 55.698814
Number Constraints Used in Cover:72
GRASP Method!
Number cuts repeat: 0
value: 55.698814
Number Constraints Used in Cover:75
GRASP Method!
Number cuts repeat: 0
value: 55.698814
Number Constraints Used in Cover:78
GRASP Method!
Number cuts repeat: 0
value: 55.698814
Number Constraints Used in Cover:81
GRASP Method!
Number cuts repeat: 0
value: 55.698814
Number Constraints Used in Cover:84
GRASP Method!
Number cuts repeat: 0
value: 55.698814
Number Constraints Used in Cover:85
GRASP Method!
Number cuts repeat: 0
value: 55.698814
Number Constraints Used in Cover:87
GRASP Method!
Number cuts repeat: 0
value: 55.698814
Number Constraints Used in Cover:90
GRASP Method!
Number cuts repeat: 0
value: 55.698814
Number Constraints Used in Cover:92
GRASP Method!
Number cuts repeat: 0
value: 55.698814
Number Constraints Used in Cover:95
GRASP Method!
Number cuts repeat: 0
value: 55.698814
Number Constraints Used in Cover:97
GRASP Method!
Number cuts repeat: 0
value: 55.698814
Number Constraints Used in Cover:100
GRASP Method!
Number cuts repeat: 0
value: 55.698814
Number Constraints Used in Cover:102
GRASP Method!
Number cuts repeat: 0
value: 55.698814
Number Constraints Used in Cover:105
GRASP Method!
Number cuts repeat: 0
value: 55.698814
Number Constraints Used in Cover:107
GRASP Method!
Number cuts repeat: 0
value: 55.698814
Number Constraints Used in Cover:111
GRASP Method!
Number cuts repeat: 0
value: 55.698814
Number Constraints Used in Cover:115
GRASP Method!
Number cuts repeat: 0
value: 55.698814
Number Constraints Used in Cover:118
GRASP Method!
Number cuts repeat: 0
value: 55.698814
Number Constraints Used in Cover:122
GRASP Method!
Number cuts repeat: 0
value: 55.698814
Number Constraints Used in Cover:125
GRASP Method!
Number cuts repeat: 0
value: 55.698814
Number Constraints Used in Cover:129
GRASP Method!
Number cuts repeat: 0
value: 55.698814
Number Constraints Used in Cover:132
GRASP Method!
Number cuts repeat: 0
value: 55.698814
Number Constraints Used in Cover:135
GRASP Method!
Number cuts repeat: 0
value: 55.698814
Number Constraints Used in Cover:137
GRASP Method!
Number cuts repeat: 0
value: 55.698814
Number Constraints Used in Cover:139
GRASP Method!
Number cuts repeat: 0
value: 55.698814
Number Constraints Used in Cover:142
GRASP Method!
Number cuts repeat: 0
value: 55.698814
Number Constraints Used in Cover:145
GRASP Method!
Number cuts repeat: 0
value: 55.698814
Number Constraints Used in Cover:148
GRASP Method!
Number cuts repeat: 0
value: 55.698814
Number Constraints Used in Cover:150
GRASP Method!
Number cuts repeat: 0
value: 55.698814
Number Constraints Used in Cover:153
GRASP Method!
Number cuts repeat: 0
value: 55.698814
Number Constraints Used in Cover:154
GRASP Method!
Number cuts repeat: 0
value: 55.698814
Number Constraints Used in Cover:157
GRASP Method!
Number cuts repeat: 0
value: 55.698814
Number Constraints Used in Cover:160
GRASP Method!
Number cuts repeat: 0
value: 55.698814
Number Constraints Used in Cover:164
GRASP Method!
Number cuts repeat: 0
value: 55.698814
Number Constraints Used in Cover:165
GRASP Method!
Number cuts repeat: 0
value: 55.698814
Number Constraints Used in Cover:168
GRASP Method!
Number cuts repeat: 0
value: 55.698814
Number Constraints Used in Cover:171
GRASP Method!
Number cuts repeat: 0
value: 55.698814
Number Constraints Used in Cover:175
GRASP Method!
Number cuts repeat: 0
value: 55.698814
Number Constraints Used in Cover:177
GRASP Method!
Number cuts repeat: 0
value: 55.698814
Number Constraints Used in Cover:180
GRASP Method!
Number cuts repeat: 0
value: 55.698814
Number Constraints Used in Cover:182
GRASP Method!
Number cuts repeat: 0
value: 55.698814
Number Constraints Used in Cover:186
GRASP Method!
Number cuts repeat: 0
value: 55.698814
Number Constraints Used in Cover:189
GRASP Method!
Number cuts repeat: 0
value: 55.156250
Number Constraints Used in Cover:193
GRASP Method!
Number cuts repeat: 0
value: 55.156250
Number Constraints Used in Cover:196
GRASP Method!
Number cuts repeat: 0
value: 55.156250
Number Constraints Used in Cover:198
GRASP Method!
Number cuts repeat: 0
value: 55.156250
Number Constraints Used in Cover:201
GRASP Method!
Number cuts repeat: 0
value: 55.156250
Number Constraints Used in Cover:203
GRASP Method!
Number cuts repeat: 0
value: 55.156250
Number Constraints Used in Cover:206
GRASP Method!
Number cuts repeat: 0
value: 55.156250
Number Constraints Used in Cover:207
GRASP Method!
Number cuts repeat: 0
value: 55.156250
Number Constraints Used in Cover:209
GRASP Method!
Number cuts repeat: 0
value: 55.156250
Number Constraints Used in Cover:211
GRASP Method!
Number cuts repeat: 0
value: 55.156250
Number Constraints Used in Cover:213
GRASP Method!
Number cuts repeat: 0
value: 55.156250
Number Constraints Used in Cover:215
GRASP Method!
Number cuts repeat: 0
value: 55.156250
Number Constraints Used in Cover:217
GRASP Method!
Number cuts repeat: 0
value: 55.156250
Number Constraints Used in Cover:219
GRASP Method!
Number cuts repeat: 0
value: 55.156250
Number Constraints Used in Cover:222
GRASP Method!
Number cuts repeat: 0
value: 55.156250
Number Constraints Used in Cover:222
GRASP Method!
Number cuts repeat: 0
value: 55.156250
Number Constraints Used in Cover:224
GRASP Method!
Number cuts repeat: 0
value: 55.156250
Number Constraints Used in Cover:227
GRASP Method!
Number cuts repeat: 0
value: 55.156250
Number Constraints Used in Cover:229
GRASP Method!
Number cuts repeat: 0
value: 55.156250
Number Constraints Used in Cover:231
GRASP Method!
Number cuts repeat: 0
value: 55.156250
Number Constraints Used in Cover:233
GRASP Method!
Number cuts repeat: 0
value: 55.156250
Number Constraints Used in Cover:236
GRASP Method!
Number cuts repeat: 0
value: 55.156250
Number Constraints Used in Cover:237
GRASP Method!
Number cuts repeat: 0
value: 55.156250
Number Constraints Used in Cover:238
GRASP Method!
Number cuts repeat: 0
value: 55.156250
Number Constraints Used in Cover:240
GRASP Method!
Number cuts repeat: 0
value: 55.156250
Number Constraints Used in Cover:241
GRASP Method!
Number cuts repeat: 0
value: 55.156250
Number Constraints Used in Cover:243
GRASP Method!
Number cuts repeat: 0
value: 55.156250
Number Constraints Used in Cover:245
GRASP Method!
Number cuts repeat: 0
value: 55.156250
Number Constraints Used in Cover:248
GRASP Method!
Number cuts repeat: 0
value: 55.156250
Number Constraints Used in Cover:250
GRASP Method!
Number cuts repeat: 0
value: 55.156250
Number Constraints Used in Cover:253
GRASP Method!
Number cuts repeat: 0
value: 55.156250
Number Constraints Used in Cover:256
GRASP Method!
Number cuts repeat: 0
value: 55.156250
Number Constraints Used in Cover:258
GRASP Method!
Number cuts repeat: 0
value: 55.156250
Number Constraints Used in Cover:259
GRASP Method!
Number cuts repeat: 0
value: 55.156250
Number Constraints Used in Cover:262
GRASP Method!
Number cuts repeat: 0
value: 55.156250
Number Constraints Used in Cover:264
GRASP Method!
Number cuts repeat: 0
value: 55.156250
Number Constraints Used in Cover:265
GRASP Method!
Number cuts repeat: 0
value: 55.156250
Number Constraints Used in Cover:267
GRASP Method!
Number cuts repeat: 0
value: 55.156250
Number Constraints Used in Cover:268
GRASP Method!
Number cuts repeat: 0
value: 55.156250
Number Constraints Used in Cover:269
GRASP Method!
Number cuts repeat: 0
value: 55.156250
Number Constraints Used in Cover:271
GRASP Method!
Number cuts repeat: 0
value: 55.156250
Number Constraints Used in Cover:272
GRASP Method!
Number cuts repeat: 0
value: 55.156250
Number Constraints Used in Cover:274
GRASP Method!
Number cuts repeat: 0
value: 55.156250
Number Constraints Used in Cover:275
GRASP Method!
Number cuts repeat: 0
value: 55.156250
Number Constraints Used in Cover:278
GRASP Method!
Number cuts repeat: 0
value: 55.156250
Number Constraints Used in Cover:280
GRASP Method!
Number cuts repeat: 0
value: 55.156250
Number Constraints Used in Cover:283
GRASP Method!
Number cuts repeat: 0
value: 55.156250
Number Constraints Used in Cover:284
GRASP Method!
Number cuts repeat: 0
value: 55.156250
Number Constraints Used in Cover:286
GRASP Method!
Number cuts repeat: 0
value: 55.156250
Number Constraints Used in Cover:288
GRASP Method!
Number cuts repeat: 0
value: 55.156250
Number Constraints Used in Cover:290
GRASP Method!
Number cuts repeat: 0
value: 55.156250
Number Constraints Used in Cover:292
GRASP Method!
Number cuts repeat: 0
value: 55.156250
Number Constraints Used in Cover:294
GRASP Method!
Number cuts repeat: 0
value: 55.156250
Number Constraints Used in Cover:297
GRASP Method!
Number cuts repeat: 0
value: 55.156250
Number Constraints Used in Cover:300
GRASP Method!
Number cuts repeat: 0
value: 55.156250
Number Constraints Used in Cover:302
GRASP Method!
Number cuts repeat: 0
value: 55.156250
Number Constraints Used in Cover:304
GRASP Method!
Number cuts repeat: 0
value: 55.156250
Number Constraints Used in Cover:305
GRASP Method!
Number cuts repeat: 0
value: 55.156250
Number Constraints Used in Cover:306
GRASP Method!
Number cuts repeat: 0
value: 55.156250
Number Constraints Used in Cover:308
GRASP Method!
Number cuts repeat: 0
value: 55.156250
Number Constraints Used in Cover:309
GRASP Method!
Number cuts repeat: 0
value: 55.156250
Number Constraints Used in Cover:311
GRASP Method!
Number cuts repeat: 0
value: 55.156250
Number Constraints Used in Cover:314
GRASP Method!
Number cuts repeat: 0
value: 55.156250
Number Constraints Used in Cover:316
GRASP Method!
Number cuts repeat: 0
value: 55.156250
Number Constraints Used in Cover:317
GRASP Method!
Number cuts repeat: 0
value: 55.156250
Number Constraints Used in Cover:320
GRASP Method!
Number cuts repeat: 0
value: 55.156250
Number Constraints Used in Cover:323
GRASP Method!
Number cuts repeat: 0
value: 55.156250
Number Constraints Used in Cover:325
GRASP Method!
Number cuts repeat: 0
value: 55.156250
Number Constraints Used in Cover:326
GRASP Method!
Number cuts repeat: 0
value: 55.156250
Number Constraints Used in Cover:328
GRASP Method!
Number cuts repeat: 0
value: 55.156250
Number Constraints Used in Cover:331
GRASP Method!
Number cuts repeat: 0
value: 55.156250
Number Constraints Used in Cover:332
GRASP Method!
Number cuts repeat: 0
value: 55.156250
Number Constraints Used in Cover:334
GRASP Method!
Number cuts repeat: 0
value: 55.156250
Number Constraints Used in Cover:336
GRASP Method!
Number cuts repeat: 0
value: 55.156250
Number Constraints Used in Cover:337
GRASP Method!
Number cuts repeat: 0
value: 55.156250
Number Constraints Used in Cover:338
GRASP Method!
Number cuts repeat: 0
value: 55.156250
Number Constraints Used in Cover:340
GRASP Method!
Number cuts repeat: 0
value: 55.156250
Number Constraints Used in Cover:343
GRASP Method!
Number cuts repeat: 0
value: 55.156250
Number Constraints Used in Cover:346
GRASP Method!
Number cuts repeat: 0
value: 55.156250
Number Constraints Used in Cover:347
GRASP Method!
Number cuts repeat: 0
value: 55.156250
Number Constraints Used in Cover:350
GRASP Method!
Number cuts repeat: 0
value: 55.156250
Number Constraints Used in Cover:353
GRASP Method!
Number cuts repeat: 0
value: 55.156250
Number Constraints Used in Cover:356
GRASP Method!
Number cuts repeat: 0
value: 55.156250
Number Constraints Used in Cover:359
GRASP Method!
Number cuts repeat: 0
value: 55.156250
Number Constraints Used in Cover:360
GRASP Method!
Number cuts repeat: 0
value: 55.156250
Number Constraints Used in Cover:362
GRASP Method!
Number cuts repeat: 0
value: 55.156250
Number Constraints Used in Cover:364
GRASP Method!
Number cuts repeat: 0
value: 55.156250
Number Constraints Used in Cover:366
GRASP Method!
Number cuts repeat: 0
value: 55.156250
Number Constraints Used in Cover:368
GRASP Method!
Number cuts repeat: 0
value: 55.156250
Number Constraints Used in Cover:371
GRASP Method!
Number cuts repeat: 0
value: 55.156250
Number Constraints Used in Cover:372
GRASP Method!
Number cuts repeat: 0
value: 55.156250
Number Constraints Used in Cover:375
GRASP Method!
Number cuts repeat: 0
value: 55.156250
Number Constraints Used in Cover:377
GRASP Method!
Number cuts repeat: 0
value: 55.156250
Number Constraints Used in Cover:379
GRASP Method!
Number cuts repeat: 0
value: 55.156250
Number Constraints Used in Cover:380
GRASP Method!
Number cuts repeat: 0
value: 55.156250
Number Constraints Used in Cover:383
GRASP Method!
Number cuts repeat: 0
value: 55.156250
Number Constraints Used in Cover:384
GRASP Method!
Number cuts repeat: 0
value: 55.156250
Number Constraints Used in Cover:386
GRASP Method!
Number cuts repeat: 0
value: 55.156250
Number Constraints Used in Cover:387
GRASP Method!
Number cuts repeat: 0
value: 55.156250
Number Constraints Used in Cover:389
GRASP Method!
Number cuts repeat: 0
value: 55.156250
Number Constraints Used in Cover:391
GRASP Method!
Number cuts repeat: 0
value: 55.156250
Number Constraints Used in Cover:394
GRASP Method!
Number cuts repeat: 0
value: 55.156250
Number Constraints Used in Cover:396
GRASP Method!
Number cuts repeat: 0
value: 55.156250
Number Constraints Used in Cover:397
GRASP Method!
Number cuts repeat: 0
value: 55.156250
Number Constraints Used in Cover:397
GRASP Method!
Number cuts repeat: 0
value: 55.156250
Number Constraints Used in Cover:400
GRASP Method!
Number cuts repeat: 0
value: 55.156250
Number Constraints Used in Cover:401
GRASP Method!
Number cuts repeat: 0
value: 55.156250
Number Constraints Used in Cover:404
GRASP Method!
Number cuts repeat: 0
value: 55.156250
Number Constraints Used in Cover:404
GRASP Method!
Number cuts repeat: 0
value: 55.156250
Number Constraints Used in Cover:405
GRASP Method!
Number cuts repeat: 0
value: 55.156250
Number Constraints Used in Cover:406
GRASP Method!
Number cuts repeat: 0
value: 55.156250
Number Constraints Used in Cover:409
GRASP Method!
Number cuts repeat: 0
value: 55.156250
Number Constraints Used in Cover:410
GRASP Method!
Number cuts repeat: 0
value: 55.156250
Number Constraints Used in Cover:412
GRASP Method!
Number cuts repeat: 0
value: 55.156250
Number Constraints Used in Cover:413
GRASP Method!
Number cuts repeat: 0
value: 55.156250
Number Constraints Used in Cover:415
GRASP Method!
Number cuts repeat: 0
value: 55.156250
Number Constraints Used in Cover:416
GRASP Method!
Number cuts repeat: 0
value: 55.156250
Number Constraints Used in Cover:419
GRASP Method!
Number cuts repeat: 0
value: 55.156250
Number Constraints Used in Cover:420
GRASP Method!
Number cuts repeat: 0
value: 55.156250
Number Constraints Used in Cover:422
GRASP Method!
Number cuts repeat: 0
value: 55.156250
Number Constraints Used in Cover:423
GRASP Method!
Number cuts repeat: 0
value: 55.156250
Number Constraints Used in Cover:426
GRASP Method!
Number cuts repeat: 0
value: 55.156250
Number Constraints Used in Cover:427
GRASP Method!
Number cuts repeat: 0
value: 55.156250
Number Constraints Used in Cover:428
GRASP Method!
Number cuts repeat: 0
value: 55.156250
Number Constraints Used in Cover:430
GRASP Method!
Number cuts repeat: 0
value: 55.156250
Number Constraints Used in Cover:432
GRASP Method!
Number cuts repeat: 0
value: 55.156250
Number Constraints Used in Cover:433
GRASP Method!
Number cuts repeat: 0
value: 55.156250
Number Constraints Used in Cover:436
GRASP Method!
Number cuts repeat: 0
value: 55.156250
Number Constraints Used in Cover:438
GRASP Method!
Number cuts repeat: 0
value: 55.156250
Number Constraints Used in Cover:440
GRASP Method!
Number cuts repeat: 0
value: 55.156250
Number Constraints Used in Cover:441
GRASP Method!
Number cuts repeat: 0
value: 55.156250
Number Constraints Used in Cover:443
GRASP Method!
Number cuts repeat: 0
value: 55.156250
Number Constraints Used in Cover:446
GRASP Method!
Number cuts repeat: 0
value: 55.156250
Number Constraints Used in Cover:448
GRASP Method!
Number cuts repeat: 0
value: 55.156250
Number Constraints Used in Cover:450
GRASP Method!
Number cuts repeat: 0
value: 55.156250
Number Constraints Used in Cover:452
GRASP Method!
Number cuts repeat: 0
value: 55.156250
Number Constraints Used in Cover:453
GRASP Method!
Number cuts repeat: 0
value: 55.156250
Number Constraints Used in Cover:454
GRASP Method!
Number cuts repeat: 0
value: 55.156250
Number Constraints Used in Cover:456
GRASP Method!
Number cuts repeat: 0
value: 55.156250
Number Constraints Used in Cover:458
GRASP Method!
Number cuts repeat: 0
value: 55.156250
Number Constraints Used in Cover:460
GRASP Method!
Number cuts repeat: 0
value: 55.156250
Number Constraints Used in Cover:462
GRASP Method!
Number cuts repeat: 0
value: 55.156250
Number Constraints Used in Cover:465
GRASP Method!
Number cuts repeat: 0
value: 55.156250
Number Constraints Used in Cover:466
GRASP Method!
Number cuts repeat: 0
value: 55.156250
Number Constraints Used in Cover:468
GRASP Method!
Number cuts repeat: 0
value: 55.156250
Number Constraints Used in Cover:469
GRASP Method!
Number cuts repeat: 0
value: 55.156250
Number Constraints Used in Cover:470
GRASP Method!
Number cuts repeat: 0
value: 55.156250
Number Constraints Used in Cover:472
GRASP Method!
Number cuts repeat: 0
value: 55.156250
Number Constraints Used in Cover:472
GRASP Method!
Number cuts repeat: 0
value: 55.156250
Number Constraints Used in Cover:474
GRASP Method!
Number cuts repeat: 0
value: 55.156250
Number Constraints Used in Cover:477
GRASP Method!
Number cuts repeat: 0
value: 55.156250
Number Constraints Used in Cover:478
GRASP Method!
Number cuts repeat: 0
value: 55.156250
Number Constraints Used in Cover:480
GRASP Method!
Number cuts repeat: 0
value: 55.156250
Number Constraints Used in Cover:483
GRASP Method!
Number cuts repeat: 0
value: 55.156250
Number Constraints Used in Cover:485
GRASP Method!
Number cuts repeat: 0
value: 55.156250
Number Constraints Used in Cover:487
GRASP Method!
Number cuts repeat: 0
value: 55.156250
Number Constraints Used in Cover:489
GRASP Method!
Number cuts repeat: 0
value: 55.156250
Number Constraints Used in Cover:490
GRASP Method!
Number cuts repeat: 0
value: 55.156250
Number Constraints Used in Cover:491
GRASP Method!
Number cuts repeat: 0
value: 55.156250
Number Constraints Used in Cover:491
GRASP Method!
Number cuts repeat: 0
value: 55.156250
Number Constraints Used in Cover:493
GRASP Method!
Number cuts repeat: 0
value: 55.156250
Number Constraints Used in Cover:494
GRASP Method!
Number cuts repeat: 0
value: 55.156250
Number Constraints Used in Cover:496
GRASP Method!
Number cuts repeat: 0
value: 55.156250
Number Constraints Used in Cover:498
GRASP Method!
Number cuts repeat: 0
value: 55.156250
Number Constraints Used in Cover:500
GRASP Method!
Number cuts repeat: 0
value: 55.156250
Number Constraints Used in Cover:502
GRASP Method!
Number cuts repeat: 0
value: 55.156250
Number Constraints Used in Cover:504
GRASP Method!
Number cuts repeat: 0
value: 55.156250
Number Constraints Used in Cover:505
GRASP Method!
Number cuts repeat: 0
value: 55.156250
Number Constraints Used in Cover:506
GRASP Method!
Number cuts repeat: 0
value: 55.156250
Number Constraints Used in Cover:508
GRASP Method!
Number cuts repeat: 0
value: 55.156250
Number Constraints Used in Cover:509
GRASP Method!
Number cuts repeat: 0
value: 55.156250
Number Constraints Used in Cover:511
GRASP Method!
Number cuts repeat: 0
value: 55.156250
Number Constraints Used in Cover:514
GRASP Method!
Number cuts repeat: 0
value: 55.156250
Number Constraints Used in Cover:516
GRASP Method!
Number cuts repeat: 0
value: 55.156250
Number Constraints Used in Cover:517
GRASP Method!
Number cuts repeat: 0
value: 55.156250
Number Constraints Used in Cover:520
GRASP Method!
Number cuts repeat: 0
value: 55.156250
Number Constraints Used in Cover:523
GRASP Method!
Number cuts repeat: 0
value: 55.156250
Number Constraints Used in Cover:525
GRASP Method!
Number cuts repeat: 0
value: 55.156250
Number Constraints Used in Cover:527
GRASP Method!
Number cuts repeat: 0
value: 55.156250
Number Constraints Used in Cover:530
GRASP Method!
Number cuts repeat: 0
value: 55.156250
Number Constraints Used in Cover:532
GRASP Method!
Number cuts repeat: 0
value: 55.156250
Number Constraints Used in Cover:534
GRASP Method!
Number cuts repeat: 0
value: 55.156250
Number Constraints Used in Cover:536
GRASP Method!
Number cuts repeat: 0
value: 55.156250
Number Constraints Used in Cover:537
GRASP Method!
Number cuts repeat: 0
value: 55.156250
Number Constraints Used in Cover:539
GRASP Method!
Number cuts repeat: 0
value: 55.156250
Number Constraints Used in Cover:540
GRASP Method!
Number cuts repeat: 0
value: 55.156250
Number Constraints Used in Cover:542
GRASP Method!
Number cuts repeat: 0
value: 55.156250
Number Constraints Used in Cover:544
GRASP Method!
Number cuts repeat: 0
value: 55.156250
Number Constraints Used in Cover:545
GRASP Method!
Number cuts repeat: 0
value: 55.156250
Number Constraints Used in Cover:545
GRASP Method!
Number cuts repeat: 0
value: 55.156250
Number Constraints Used in Cover:545
GRASP Method!
Number cuts repeat: 0
value: 55.156250
Number Constraints Used in Cover:546
GRASP Method!
Number cuts repeat: 0
value: 55.156250
Number Constraints Used in Cover:547
GRASP Method!
Number cuts repeat: 0
value: 55.156250
Number Constraints Used in Cover:547
GRASP Method!
Number cuts repeat: 0
value: 55.156250
Number Constraints Used in Cover:547
GRASP Method!
Number cuts repeat: 0
value: 55.156250
Number Constraints Used in Cover:550
GRASP Method!
Number cuts repeat: 0
value: 55.156250
Number Cuts Final: 547
